TCS_Benchmarks/redos_fix/regexlib2_output_distinct_3543_3542_22_0.txt
(((([\-\.\'A-Za-z]+){1})((,\s*([A-Za-z]+))?)))+(([0-9A-Za-z](([\-\._]?[0-9A-Za-z]+)*)@([0-9A-Za-z]+)(([\-\.]?[0-9A-Za-z]+)*)\.([A-Za-z]{2,})){1})+
(([0-9A-Za-z](([\-\._]?[0-9A-Za-z]+)*)@([0-9A-Za-z]+)(([\-\.]?[0-9A-Za-z]+)*)\.([A-Za-z]{2,})){1})+
A.*